n_res = 5;
rcap = [13, 12, 18, 86, 77];
rtype = [1, 1, 1, 2, 2];
n_tasks = 16;
modes = [ {1, 2, 3}, {4, 5, 6}, {7, 8, 9}, {10, 11, 12}, {13, 14, 15}, {16, 17, 18}, {19, 20, 21}, {22, 23, 24}, {25, 26, 27}, {28, 29, 30}, {31, 32, 33}, {34, 35, 36}, {37, 38, 39}, {40, 41, 42}, {43, 44, 45}, {46, 47, 48} ];
succ = [ {5, 6, 7}, {4, 6}, {5}, {8, 9, 10}, {10, 13, 15}, {9, 10, 11}, {13, 16}, {11}, {12, 13}, {14}, {14, 15, 16}, {15, 16}, {14}, {}, {}, {} ];
n_opt = 48;
dur = [2, 2, 7, 8, 9, 10, 1, 2, 8, 2, 2, 3, 1, 1, 8, 4, 8, 10, 2, 3, 10, 3, 3, 3, 5, 6, 7, 1, 8, 9, 1, 7, 9, 2, 8, 10, 4, 6, 8, 2, 5, 8, 5, 6, 9, 5, 6, 9];
rreq = [|  0,  0,  0,  0,  0,  0,  0,  0,  0,  4,  4,  4,  6,  0,  0,  6,  0,  4,  0,  0,  0,  3,  0,  0,  0,  4,  4,  9,  6,  1,  8,  5,  2,  5,  1,  0,  5,  0,  0,  6,  5,  0,  0,  5,  0,  0,  4,  0
        |  1,  1,  0,  5,  0,  0,  6,  5,  4,  0,  0,  2,  3,  0,  0,  9,  0,  5,  0,  4,  3,  0,  0,  3,  8,  7,  5,  0,  0,  0,  6,  0,  0, 10,  0,  0,  0,  0,  0,  0,  0,  0,  5,  0,  0,  5,  0,  3
        |  8,  8,  6,  7,  5,  5,  0,  0,  4,  6,  0,  5,  4,  4,  2,  6,  3,  0,  4,  0,  0,  0,  4,  5,  8,  0,  8,  3,  0,  0,  0,  0,  0,  7,  0,  7,  1,  1,  1,  0,  8,  5,  7,  0,  7,  0,  0,  7
        |  9,  0,  9, 10, 10,  9,  8,  0,  6,  6,  0,  6,  7,  0,  8,  6,  5,  5,  9,  0,  5,  0,  3,  0,  0,  0,  0, 10,  0,  6,  0,  0,  4,  4,  0,  4,  0,  0,  0,  0,  0,  0,  3,  0,  3,  0,  6,  5
        |  0,  2,  0,  0,  0,  0,  0,  4,  0,  0,  6,  0,  0,  7,  0,  0,  0,  0,  0,  5,  0,  3,  0,  4,  2,  2,  1,  0,  5,  0,  7,  4,  0,  0,  8,  0,  5,  4,  2,  7,  6,  5,  0,  9,  0,  6,  0,  0 |];
